32      4       
18      15      16      18      
0       0       0       0       0       2       2       7       
3       1       3       0       0       1       3       
10      0       1       7       0       1       4       
4       2       5       0       0       1       5       
5       0       0       4       5       2       12      6       
5       1       0       0       2       1       8       
1       0       0       1       1       1       8       
3       0       6       2       0       1       9       
2       15      0       0       9       1       10      
10      1       1       0       0       1       11      
8       0       0       6       7       1       13      
5       11      0       0       8       1       13      
9       13      0       0       8       1       14      
7       0       8       0       4       1       15      
3       1       0       1       0       2       20      16      
7       9       0       1       0       2       23      17      
7       7       0       0       1       1       18      
6       0       1       0       4       1       19      
9       2       0       6       0       2       31      21      
6       1       5       0       0       2       31      22      
9       2       6       0       0       1       22      
5       0       1       8       0       2       30      24      
5       0       5       0       6       2       30      24      
7       0       1       1       0       1       25      
3       0       2       0       1       1       26      
2       0       0       16      3       1       27      
6       1       0       1       0       1       28      
9       0       0       1       8       1       29      
7       1       10      0       0       1       32      
7       0       0       4       1       1       32      
9       0       1       1       0       1       32      
0       0       0       0       0       0       
